Version identifier: 20.1.0.0 | 2020-11-10 | 9bedb6d68
CPXPARAM_LPMethod                                3
CPXPARAM_QPMethod                                3
CPXPARAM_Threads                                 4
CPXPARAM_MIP_Strategy_StartAlgorithm             3
CPXPARAM_Emphasis_MIP                            1
CPXPARAM_MIP_Limits_Solutions                    1
CPXPARAM_TimeLimit                               43196
Tried aggregator 1 time.
MIP Presolve eliminated 3 rows and 0 columns.
Reduced MIP has 14907 rows, 496 columns, and 49931 nonzeros.
Reduced MIP has 496 binaries, 0 generals, 0 SOSs, and 0 indicators.
Presolve time = 0,05 sec. (19,03 ticks)
Probing time = 0,04 sec. (0,98 ticks)
Tried aggregator 1 time.
Detecting symmetries...
Reduced MIP has 14907 rows, 496 columns, and 49931 nonzeros.
Reduced MIP has 496 binaries, 0 generals, 0 SOSs, and 0 indicators.
Presolve time = 0,03 sec. (22,50 ticks)
Probing time = 0,00 sec. (2,25 ticks)
MIP emphasis: integer feasibility.
MIP search method: dynamic search.
Parallel mode: deterministic, using up to 4 threads.
Root relaxation solution time = 1,78 sec. (356,77 ticks)

        Nodes                                         Cuts/
   Node  Left     Objective  IInf  Best Integer    Best Bound    ItCnt     Gap

      0     0       49,0000     8                     49,0000     1132         
      0     0       49,0000    10                    Fract: 1     1348         
Detecting symmetries...
      0     2       49,0000     8                     49,0000     1348         
Elapsed time = 5,06 sec. (1121,69 ticks, tree = 0,02 MB, solutions = 0)
      8     4    infeasible                           49,0000     2507         
     17     5    infeasible                           49,0000     3686         

Root node processing (before b&c):
  Real time             =    5,05 sec. (1114,25 ticks)
Parallel b&c, 4 threads:
  Real time             =    3,65 sec. (769,26 ticks)
  Sync time (average)   =    0,69 sec.
  Wait time (average)   =    0,00 sec.
                          ------------
Total (root+branch&cut) =    8,70 sec. (1883,52 ticks)
